    0            330      850   0      0  0 0      0     1440
    1            348      866  60    250  1 1 1  300     1320
    2            348      877  60    150  1 1 1  300      540
    3            337      858  60    300  1 1 1  300     1320
    4            324      870  60    224  1 1 1  300      540
    5            332      876  60    210  1 1 1  300     1320
    6            338      873  60    250  1 1 1  300     1320
    7            305      879  60    220  1 1 1  300     1320
    8            342      868  60    300  1 1 1  300      540
    9            318      866  60    180  1 1 1  300     1320
   10            330      859  60    190  1 1 1  300      540
   11            319      852  60    160  1 1 1  720     1080
   12            335      865  60    270  1 1 1  300     1320
   13            340      861  60    210  1 1 1  720     1080
   14            338      871  60    255  1 1 1  300     1320
   15            335      868  60    228  1 1 1  240      300
   16            334      866  60    220  1 1 1  720     1080
   17            310      873  60    165  1 1 1  300     1320
   18            344      857  60    215  1 1 1  300      540
   19            313      863  60    155  1 1 1  300     1320
   20            336      868  60    200  1 1 1  300      540
   21            344      869  60    210  1 1 1  300     1320
   22            343      865  60    220  1 1 1  240      300
   23            348      870  60    280  1 1 1  720     1080
   24            314      869  60    190  1 1 1  720     1080
   25            335      868  60    240  1 1 1  240      300
   26            331      854  60    265  1 1 1  300     1320
   27            342      862  60    230  1 1 1  300      540
   28            345      859  60    255  1 1 1  300     1320
   29            332      875  60    225  1 1 1  300     1320
   30            340      860  60    170  1 1 1  300      540
   31            348      870  60    165  1 1 1  300     1320
   32            347      877  60    200  1 1 1  300      540
   33            346      870  60    175  1 1 1  300     1320
   34            328      866  60    190  1 1 1  720     1080
   35            304      873  60    160  1 1 1  300     1320
   36            304      872  60    220  1 1 1  300     1320
   37            345      853  60    180  1 1 1  300     1320
   38            347      854  60    240  1 1 1  300     1320
   39            348      850  60    133  1 1 1  300     1320
   40            342      887  60    215  1 1 1  300     1320
   41            312      854  60    200  1 1 1  300     1320
   42            325      850  60    250  1 1 1  300     1320
   43            347      866  60    300  1 1 1  960     1080
   44            348      877  60    180  1 1 1  720     1080
   45            347      866  60    320  1 1 1  300     1320
   46            347      866  60    250  1 1 1  300      540
   47            347      866  60    250  1 1 1  240      300
   48            347      866  60    230  1 1 1  300     1320
   49            347      866  60    410  1 1 1  300     1320
   50            348      877  60    205  1 1 1  300      540
   51            337      858  60    340  1 1 1  300     1320
   52            332      875  60    325  1 1 1  960     1080
   53            323      863  60    215  1 1 1  300     1320
   54            324      863  60    195  1 1 1  300     1320
   55            348      877  60    275  1 1 1  300      540
   56            326      855  60    280  1 1 1  300     1320
   57            332      875  60    330  1 1 1  300     1320
   58            318      859  60    250  1 1 1  300     1320
   59            314      857  60    345  1 1 1  300     1320
   60            325      865  60    315  1 1 1  300      540
   61            324      863  60    330  1 1 1  300      540
   62            324      863  60    350  1 1 1  720     1080
   63            324      863  60    300  1 1 1  720     1080
   64            343      862  60    340  1 1 1  720     1080
   65            313      858  60    327  1 1 1  720     1080
   66            312      854  60    295  1 1 1  960     1080
   67            328      852  60    350  1 1 1  300      540
   68            307      882  60    290  1 1 1  960     1080
   69            307      881  60    245  1 1 1  300      540
   70            306      882  60    290  1 1 1  300     1320
   71            338      858  60    245  1 1 1  720     1080
   72            309      878  60    271  1 1 1  720     1080
   73            313      865  60    175  1 1 1  960     1080
   74            345      877  60    290  1 1 1  240      300
   75            311      871  60    280  1 1 1  300     1320
   76            304      877  60    255  1 1 1  240      300
   77            334      861  60    250  1 1 1  300     1320
   78            313      857  60    360  1 1 1  720     1080
   79            325      862  60    270  1 1 1  960     1080
   80            343      863  60    215  1 1 1  300     1320
